30
1 0 5
2 0 3
2 1 3
3 0 3
3 1 4
3 2 1
4 0 5
4 1 3
4 2 3
4 3 3
5 0 1
5 1 5
5 2 1
5 3 2
5 4 1
6 0 4
6 1 4
6 2 3
6 3 5
6 4 6
6 5 4
7 0 4
7 1 4
7 2 5
7 3 3
7 4 1
7 5 2
7 6 6
8 0 5
8 1 3
8 2 4
8 3 2
8 4 3
8 5 4
8 6 4
8 7 4
9 0 4
9 1 6
9 2 6
9 3 3
9 4 4
9 5 4
9 6 4
9 7 6
9 8 3
10 0 4
10 1 4
10 2 3
10 3 2
10 4 1
10 5 5
10 6 3
10 7 6
10 8 2
10 9 1
11 0 1
11 1 4
11 2 3
11 3 2
11 4 3
11 5 1
11 6 5
11 7 3
11 8 1
11 9 4
11 10 3
12 0 1
12 1 4
12 2 6
12 3 3
12 4 6
12 5 3
12 6 4
12 7 2
12 8 5
12 9 3
12 10 6
12 11 3
13 0 5
13 1 2
13 2 5
13 3 1
13 4 1
13 5 6
13 6 5
13 7 3
13 8 5
13 9 6
13 10 2
13 11 1
13 12 1
14 0 4
14 1 4
14 2 6
14 3 6
14 4 1
14 5 3
14 6 4
14 7 2
14 8 3
14 9 2
14 10 2
14 11 4
14 12 4
14 13 4
15 0 2
15 1 2
15 2 6
15 3 2
15 4 4
15 5 2
15 6 4
15 7 6
15 8 5
15 9 6
15 10 2
15 11 4
15 12 4
15 13 4
15 14 1
16 0 1
16 1 4
16 2 3
16 3 3
16 4 5
16 5 3
16 6 6
16 7 3
16 8 4
16 9 6
16 10 6
16 11 4
16 12 6
16 13 2
16 14 6
16 15 5
17 0 2
17 1 2
17 2 6
17 3 6
17 4 5
17 5 5
17 6 4
17 7 5
17 8 5
17 9 2
17 10 2
17 11 3
17 12 3
17 13 5
17 14 6
17 15 3
17 16 5
18 0 4
18 1 1
18 2 1
18 3 2
18 4 4
18 5 3
18 6 5
18 7 4
18 8 6
18 9 1
18 10 4
18 11 2
18 12 1
18 13 6
18 14 1
18 15 1
18 16 6
18 17 4
19 0 1
19 1 2
19 2 2
19 3 3
19 4 6
19 5 5
19 6 5
19 7 5
19 8 5
19 9 3
19 10 1
19 11 1
19 12 4
19 13 2
19 14 3
19 15 5
19 16 2
19 17 2
19 18 2
20 0 4
20 1 5
20 2 4
20 3 1
20 4 5
20 5 6
20 6 1
20 7 5
20 8 4
20 9 4
20 10 1
20 11 2
20 12 6
20 13 4
20 14 5
20 15 6
20 16 1
20 17 2
20 18 2
20 19 6
21 0 3
21 1 2
21 2 4
21 3 3
21 4 5
21 5 4
21 6 5
21 7 1
21 8 4
21 9 6
21 10 6
21 11 3
21 12 5
21 13 1
21 14 1
21 15 1
21 16 3
21 17 5
21 18 2
21 19 2
21 20 1
22 0 3
22 1 4
22 2 5
22 3 2
22 4 5
22 5 5
22 6 2
22 7 5
22 8 4
22 9 2
22 10 6
22 11 3
22 12 6
22 13 4
22 14 1
22 15 2
22 16 5
22 17 2
22 18 1
22 19 5
22 20 4
22 21 3
23 0 1
23 1 1
23 2 4
23 3 5
23 4 2
23 5 4
23 6 6
23 7 2
23 8 4
23 9 3
23 10 2
23 11 5
23 12 2
23 13 1
23 14 5
23 15 4
23 16 5
23 17 5
23 18 5
23 19 1
23 20 3
23 21 6
23 22 2
24 0 2
24 1 3
24 2 3
24 3 3
24 4 1
24 5 1
24 6 3
24 7 5
24 8 3
24 9 2
24 10 3
24 11 5
24 12 5
24 13 5
24 14 2
24 15 6
24 16 4
24 17 1
24 18 4
24 19 2
24 20 4
24 21 4
24 22 1
24 23 1
25 0 2
25 1 2
25 2 2
25 3 5
25 4 3
25 5 1
25 6 1
25 7 2
25 8 1
25 9 4
25 10 2
25 11 5
25 12 6
25 13 3
25 14 3
25 15 5
25 16 3
25 17 5
25 18 3
25 19 2
25 20 6
25 21 6
25 22 1
25 23 5
25 24 1
26 0 1
26 1 6
26 2 2
26 3 4
26 4 3
26 5 2
26 6 4
26 7 5
26 8 2
26 9 6
26 10 2
26 11 5
26 12 5
26 13 4
26 14 1
26 15 3
26 16 6
26 17 1
26 18 3
26 19 2
26 20 2
26 21 2
26 22 4
26 23 2
26 24 4
26 25 5
27 0 4
27 1 2
27 2 6
27 3 3
27 4 5
27 5 6
27 6 5
27 7 1
27 8 1
27 9 6
27 10 3
27 11 5
27 12 1
27 13 6
27 14 2
27 15 5
27 16 1
27 17 1
27 18 5
27 19 4
27 20 6
27 21 3
27 22 3
27 23 6
27 24 2
27 25 4
27 26 4
28 0 4
28 1 1
28 2 3
28 3 6
28 4 2
28 5 2
28 6 2
28 7 3
28 8 3
28 9 5
28 10 4
28 11 2
28 12 3
28 13 4
28 14 5
28 15 3
28 16 5
28 17 3
28 18 3
28 19 5
28 20 1
28 21 1
28 22 3
28 23 3
28 24 6
28 25 5
28 26 2
28 27 6
29 0 1
29 1 4
29 2 6
29 3 3
29 4 2
29 5 3
29 6 5
29 7 2
29 8 1
29 9 3
29 10 6
29 11 5
29 12 4
29 13 1
29 14 2
29 15 3
29 16 5
29 17 3
29 18 4
29 19 6
29 20 5
29 21 1
29 22 1
29 23 3
29 24 4
29 25 3
29 26 4
29 27 2
29 28 1
